80 254639
2 78 5 58 34 77 6 46 32 55 16 67 60 27 72 31 71 8 53 24 42 44 12 10 11 52 79 80 66 62 23 25 69 13 48 73 49 57 33 14 64 39 54 45 22 7 15 20 28 35 63 61 36 43 68 17 65 41 70 47 56 37 1 30 4 9 76 50 3 19 75 51 59 18 38 40 21 26 74 29 
